x_1
x_2
x_3
x_4
x_5
x_6
x_7
x_8
x_9
x_10
x_11
x_12
x_13
x_14
x_15
x_16
x_17
x_18
x_19
x_20
x_4 x_2
x_5 x_1
x_5 x_2
x_6 x_5
x_7 x_2
x_7 x_3
x_7 x_6
x_8 x_1
x_9 x_2
x_9 x_3
x_9 x_4
x_9 x_5
x_9 x_8
x_10 x_3
x_10 x_4
x_10 x_5
x_10 x_6
x_10 x_7
x_10 x_8
x_11 x_1
x_11 x_2
x_11 x_3
x_11 x_4
x_11 x_6
x_11 x_7
x_11 x_8
x_11 x_9
x_12 x_2
x_12 x_3
x_12 x_4
x_12 x_6
x_12 x_8
x_12 x_9
x_12 x_10
x_13 x_2
x_13 x_5
x_13 x_7
x_13 x_8
x_14 x_10
x_14 x_12
x_14 x_13
x_15 x_3
x_15 x_4
x_15 x_5
x_15 x_6
x_15 x_8
x_15 x_12
x_16 x_2
x_16 x_3
x_16 x_5
x_16 x_7
x_16 x_8
x_16 x_10
x_16 x_12
x_16 x_14
x_17 x_3
x_17 x_7
x_17 x_10
x_17 x_12
x_17 x_13
x_17 x_15
x_17 x_16
x_18 x_1
x_18 x_3
x_18 x_6
x_18 x_7
x_18 x_8
x_18 x_9
x_18 x_10
x_18 x_11
x_18 x_12
x_18 x_14
x_18 x_15
x_18 x_17
x_19 x_3
x_19 x_4
x_19 x_5
x_19 x_6
x_19 x_7
x_19 x_8
x_19 x_9
x_19 x_11
x_19 x_15
x_19 x_16
x_19 x_18
x_20 x_2
x_20 x_3
x_20 x_5
x_20 x_7
x_20 x_10
x_20 x_12
x_20 x_13
x_20 x_14
x_20 x_15
x_20 x_16
